
Gurobi 9.0.1 (linux64) logging started Thu Apr 30 21:32:15 2020

Gurobi Optimizer version 9.0.1 build v9.0.1rc0 (linux64)
Optimize a model with 30302 rows, 27380 columns and 600120 nonzeros
Model fingerprint: 0xef86e0a2
Variable types: 0 continuous, 27380 integer (27342 binary)
Coefficient statistics:
  Matrix range     [1e+00, 2e+01]
  Objective range  [5e+00, 1e+02]
  Bounds range     [1e+00, 1e+00]
  RHS range        [1e+00, 1e+00]

User MIP start produced solution with objective 1167 (0.85s)
Loaded user MIP start with objective 1167

Presolve removed 13651 rows and 7507 columns (presolve time = 5s) ...
Presolve removed 13691 rows and 7564 columns
Presolve time: 9.60s
Presolved: 16611 rows, 19816 columns, 498564 nonzeros
Variable types: 0 continuous, 19816 integer (19816 binary)

Root simplex log...

Iteration    Objective       Primal Inf.    Dual Inf.      Time
       0    2.8500000e+02   6.910000e+02   0.000000e+00     12s
    1951    5.4533341e+02   3.489031e+03   0.000000e+00     15s
    3711    5.5593723e+02   6.427462e+03   0.000000e+00     20s
    5151    5.6181020e+02   2.077831e+03   0.000000e+00     25s
    6593    5.6670252e+02   2.875607e+03   0.000000e+00     30s
    8223    5.6901786e+02   8.621811e+03   0.000000e+00     35s
    9315    5.7026111e+02   0.000000e+00   0.000000e+00     39s
    9315    5.7026111e+02   0.000000e+00   0.000000e+00     39s

Root relaxation: objective 5.702611e+02, 9315 iterations, 28.69 seconds
Total elapsed time = 40.11s

    Nodes    |    Current Node    |     Objective Bounds      |     Work
 Expl Unexpl |  Obj  Depth IntInf | Incumbent    BestBd   Gap | It/Node Time

     0     0  570.26111    0 1435 1167.00000  570.26111  51.1%     -   46s
     0     0  592.96861    0 1467 1167.00000  592.96861  49.2%     -   98s
     0     0  593.44807    0 1473 1167.00000  593.44807  49.1%     -  113s
     0     0  593.46099    0 1484 1167.00000  593.46099  49.1%     -  115s
     0     0  601.78833    0 1559 1167.00000  601.78833  48.4%     -  168s
     0     0  602.88263    0 1512 1167.00000  602.88263  48.3%     -  192s
     0     0  603.12752    0 1534 1167.00000  603.12752  48.3%     -  199s
     0     0  609.93229    0 1489 1167.00000  609.93229  47.7%     -  245s
     0     0  610.30543    0 1515 1167.00000  610.30543  47.7%     -  265s
     0     0  610.35761    0 1519 1167.00000  610.35761  47.7%     -  269s
     0     0  610.37588    0 1546 1167.00000  610.37588  47.7%     -  271s
     0     0  613.88831    0 1543 1167.00000  613.88831  47.4%     -  318s
     0     0  614.28544    0 1551 1167.00000  614.28544  47.4%     -  336s
     0     0  614.32539    0 1556 1167.00000  614.32539  47.4%     -  339s
     0     0  615.66624    0 1593 1167.00000  615.66624  47.2%     -  371s
     0     0  615.83559    0 1585 1167.00000  615.83559  47.2%     -  388s
     0     0  615.84312    0 1589 1167.00000  615.84312  47.2%     -  391s
     0     0  617.15874    0 1613 1167.00000  617.15874  47.1%     -  420s
     0     0  617.29135    0 1614 1167.00000  617.29135  47.1%     -  446s
     0     0  617.34816    0 1614 1167.00000  617.34816  47.1%     -  449s
     0     0  617.37359    0 1622 1167.00000  617.37359  47.1%     -  452s
     0     0  617.37359    0 1616 1167.00000  617.37359  47.1%     -  453s
     0     0  617.99959    0 1505 1167.00000  617.99959  47.0%     -  467s
     0     0  618.09347    0 1564 1167.00000  618.09347  47.0%     -  477s
     0     0  618.09697    0 1572 1167.00000  618.09697  47.0%     -  479s
     0     0  618.53486    0 1575 1167.00000  618.53486  47.0%     -  512s
     0     0  618.57194    0 1586 1167.00000  618.57194  47.0%     -  518s
     0     0  618.57613    0 1587 1167.00000  618.57613  47.0%     -  519s
     0     0  618.80326    0 1566 1167.00000  618.80326  47.0%     -  535s
     0     0  618.88128    0 1592 1167.00000  618.88128  47.0%     -  543s
     0     0  618.88331    0 1588 1167.00000  618.88331  47.0%     -  545s
     0     0  619.17717    0 1574 1167.00000  619.17717  46.9%     -  556s
     0     0  619.25317    0 1614 1167.00000  619.25317  46.9%     -  564s
     0     0  619.27036    0 1617 1167.00000  619.27036  46.9%     -  566s
     0     0  619.73852    0 1588 1167.00000  619.73852  46.9%     -  598s
     0     0  619.73997    0 1584 1167.00000  619.73997  46.9%     -  606s
     0     0  619.90519    0 1573 1167.00000  619.90519  46.9%     -  616s
     0     0  619.96133    0 1625 1167.00000  619.96133  46.9%     -  623s
     0     0  619.97309    0 1631 1167.00000  619.97309  46.9%     -  626s
     0     0  620.04976    0 1637 1167.00000  620.04976  46.9%     -  636s
     0     0  620.05924    0 1640 1167.00000  620.05924  46.9%     -  641s
     0     0  620.28385    0 1622 1167.00000  620.28385  46.8%     -  652s
     0     0  620.31376    0 1628 1167.00000  620.31376  46.8%     -  658s
     0     0  620.32085    0 1665 1167.00000  620.32085  46.8%     -  661s
     0     0  620.44455    0 1677 1167.00000  620.44455  46.8%     -  669s
     0     0  620.44870    0 1648 1167.00000  620.44870  46.8%     -  674s
     0     0  620.99537    0 1631 1167.00000  620.99537  46.8%     -  705s
     0     0  621.09243    0 1663 1167.00000  621.09243  46.8%     -  719s
     0     0  621.10054    0 1669 1167.00000  621.10054  46.8%     -  721s
     0     0  621.23307    0 1684 1167.00000  621.23307  46.8%     -  736s
     0     0  621.28425    0 1676 1167.00000  621.28425  46.8%     -  743s
     0     0  621.29769    0 1678 1167.00000  621.29769  46.8%     -  746s
     0     0  621.30430    0 1682 1167.00000  621.30430  46.8%     -  748s
     0     0  621.37436    0 1644 1167.00000  621.37436  46.8%     -  760s
     0     0  621.37865    0 1644 1167.00000  621.37865  46.8%     -  765s
     0     0  621.65660    0 1642 1167.00000  621.65660  46.7%     -  782s
     0     0  621.68790    0 1638 1167.00000  621.68790  46.7%     -  787s
     0     0  621.69274    0 1650 1167.00000  621.69274  46.7%     -  789s
     0     0  621.78023    0 1627 1167.00000  621.78023  46.7%     -  797s
     0     0  621.79320    0 1652 1167.00000  621.79320  46.7%     -  802s
     0     0  621.80043    0 1651 1167.00000  621.80043  46.7%     -  805s
     0     0  621.82995    0 1636 1167.00000  621.82995  46.7%     -  811s
     0     0  621.82995    0 1590 1167.00000  621.82995  46.7%     -  819s
     0     2  621.83781    0 1590 1167.00000  621.83781  46.7%     -  973s
     1     3  626.13359    1 1544 1167.00000  621.83781  46.7%  8556 1010s
     2     4  622.68347    1 1631 1167.00000  622.68347  46.6%  6046 1027s
     3     5  630.29063    2 1507 1167.00000  622.68431  46.6%  7638 1081s
     4     6  623.24811    2 1625 1167.00000  623.24811  46.6%  6144 1089s
     5     7  631.95018    3 1520 1167.00000  623.25296  46.6%  6781 1137s
     6     8  623.55321    3 1635 1167.00000  623.55321  46.6%  6025 1148s
     7     9  624.22074    4 1615 1167.00000  623.55629  46.6%  5485 1159s
     8    10  629.93417    4 1478 1167.00000  624.23070  46.5%  5978 1206s
     9    11  625.12041    5 1610 1167.00000  624.23070  46.5%  5580 1218s
    10    12  646.60649    5 1483 1167.00000  625.12041  46.4%  6223 1264s
    11    13  625.19309    6 1605 1167.00000  625.12041  46.4%  5749 1269s
    12    14  644.17432    6 1484 1167.00000  625.19309  46.4%  6320 1313s
    13    15  625.43962    7 1626 1167.00000  625.19309  46.4%  6024 1324s
    14    16  644.42480    7 1400 1167.00000  625.43962  46.4%  6817 1387s
    15    17  625.59398    8 1649 1167.00000  625.43962  46.4%  6425 1392s
    16    18  640.99960    8 1469 1167.00000  625.59398  46.4%  6820 1451s
    17    19  626.02264    9 1659 1167.00000  625.59398  46.4%  6503 1459s
    18    20  639.42944    9 1412 1167.00000  626.02264  46.4%  7045 1534s
    19    21  626.35995   10 1578 1167.00000  626.02264  46.4%  6773 1542s
    20    22  640.86851   10 1440 1167.00000  626.15318  46.3%  7264 1600s
    21    23  626.96533   11 1629 1167.00000  626.15318  46.3%  6985 1608s
    22    24  631.56905   11 1482 1167.00000  626.15318  46.3%  7106 1648s
    23    25  627.87040   12 1621 1167.00000  626.15318  46.3%  6860 1656s
    24    26  645.92624   13 1499 1167.00000  626.15318  46.3%  7103 1716s
    26    28  628.20585   14 1602 1167.00000  626.15318  46.3%  6609 1722s
    27    29  641.54968   15 1444 1167.00000  626.15318  46.3%  6861 1783s
    28    30  628.51073   15 1589 1167.00000  626.15318  46.3%  6684 1790s
    29    31  644.20469   16 1436 1167.00000  626.15318  46.3%  7070 1848s
    30    32  628.70247   16 1579 1167.00000  626.15318  46.3%  6856 1852s
    31    33  628.93581   17 1637 1167.00000  626.15318  46.3%  6659 1855s
    32    34  644.30600   18 1533 1167.00000  626.15318  46.3%  6876 1914s
    33    35  629.09138   18 1612 1167.00000  626.15318  46.3%  6686 1917s
    34    36  629.16278   19 1614 1167.00000  626.15318  46.3%  6511 1921s
    35    37  629.37880   20 1595 1167.00000  626.15318  46.3%  6367 1928s
    36    38  629.41327   21 1629 1167.00000  626.15318  46.3%  6202 1930s
    37    39  648.13726   22 1465 1167.00000  626.15318  46.3%  6352 1981s
    38    40  629.60190   22 1615 1167.00000  626.15318  46.3%  6230 1988s
    39    41  647.77970   23 1542 1167.00000  626.15318  46.3%  6549 2061s
    41    43  645.19475   24 1486 1167.00000  626.15318  46.3%  6542 2112s
    42    44  629.81629   24 1574 1167.00000  626.15318  46.3%  6399 2115s
    43    45  647.77506   25 1468 1167.00000  626.15318  46.3%  6659 2191s
    45    47  629.98660   26 1579 1167.00000  626.15318  46.3%  6402 2199s
    46    48  645.36670   26 1488 1167.00000  626.15318  46.3%  6589 2262s
    47    49  630.21660   27 1565 1167.00000  626.15318  46.3%  6490 2269s
    48    50  643.10566   27 1430 1167.00000  626.15318  46.3%  6661 2318s
    49    51  630.88681   28 1591 1167.00000  626.15318  46.3%  6559 2326s
    50    52  637.03181   28 1413 1167.00000  626.15318  46.3%  6635 2373s
    51    53  631.12283   29 1620 1167.00000  626.15318  46.3%  6537 2380s
    52    54  650.47268   29 1496 1167.00000  626.15318  46.3%  6732 2451s
    53    55  631.33291   30 1593 1167.00000  626.15318  46.3%  6652 2461s
    54    56  631.34847   31 1608 1167.00000  626.15318  46.3%  6533 2467s
    55    57  644.19185   32 1425 1167.00000  626.15318  46.3%  6642 2511s
    56    58  631.75921   32 1632 1167.00000  626.15318  46.3%  6541 2517s
    57    59  646.75105   33 1500 1167.00000  626.15318  46.3%  6662 2576s
    58    60  631.87363   33 1595 1167.00000  626.15318  46.3%  6565 2580s
    59    61  632.19829   34 1577 1167.00000  626.15318  46.3%  6482 2587s
    60    62  645.25153   35 1436 1167.00000  626.15318  46.3%  6576 2627s
    61    63  632.46200   35 1577 1167.00000  626.15318  46.3%  6479 2630s
    62    64  647.27466   36 1442 1167.00000  626.15318  46.3%  6554 2674s
    63    65  633.08950   36 1558 1167.00000  626.15318  46.3%  6470 2679s
    64    66  647.65489   37 1508 1167.00000  626.15318  46.3%  6617 2737s
    65    67  633.38534   37 1556 1167.00000  626.15318  46.3%  6529 2740s
    66    68  645.32331   38 1347 1167.00000  626.15318  46.3%  6602 2772s
    67    69  634.20792   38 1548 1167.00000  626.15318  46.3%  6531 2780s
    68    70  651.07996   39 1429 1167.00000  626.15318  46.3%  6684 2846s
    69    71  634.53973   39 1573 1167.00000  626.15318  46.3%  6607 2852s
    70    72  634.75322   40 1567 1167.00000  626.15318  46.3%  6536 2858s
    71    73  651.19289   41 1481 1167.00000  626.15318  46.3%  6574 2888s
    72    74  635.17902   41 1564 1167.00000  626.15318  46.3%  6502 2893s
    73    75  656.48653   42 1450 1167.00000  626.15318  46.3%  6596 2935s
    74    76  635.80609   42 1568 1167.00000  626.15318  46.3%  6526 2941s
    75    77  662.31297   43 1466 1167.00000  626.15318  46.3%  6655 3008s
    76    78  636.06283   43 1590 1167.00000  626.15318  46.3%  6585 3012s
    77    79  651.14645   44 1486 1167.00000  626.15318  46.3%  6611 3039s
    78    80  636.52479   44 1557 1167.00000  626.15318  46.3%  6552 3046s
    79    81  636.62852   45 1561 1167.00000  626.15318  46.3%  6481 3050s
    81    83  653.96286   47 1455 1167.00000  626.15318  46.3%  6492 3097s
    82    84  637.14628   47 1583 1167.00000  626.15318  46.3%  6424 3101s
    83    85  661.74659   48 1454 1167.00000  626.15318  46.3%  6553 3166s
    84    86  637.86551   48 1608 1167.00000  626.15318  46.3%  6495 3172s
    85    87  638.61877   49 1594 1167.00000  626.15318  46.3%  6440 3178s
    86    88  659.95721   49 1383 1167.00000  626.15318  46.3%  6522 3222s
    87    89  639.08190   50 1540 1167.00000  626.15318  46.3%  6459 3226s
    88    90  652.45335   50 1394 1167.00000  626.15318  46.3%  6518 3271s
    89    91  639.36944   51 1530 1167.00000  626.15318  46.3%  6456 3275s
    90    92  655.77372   52 1513 1167.00000  626.15318  46.3%  6532 3318s
    91    93  639.84000   52 1529 1167.00000  626.15318  46.3%  6471 3322s
    93    95  652.72520   54 1446 1167.00000  626.15318  46.3%  6471 3373s
    94    96  640.19039   54 1538 1167.00000  626.15318  46.3%  6406 3375s
    96    98  641.28630   56 1555 1167.00000  626.15318  46.3%  6294 3384s
    97    99  641.54678   57 1550 1167.00000  626.15318  46.3%  6237 3388s
    98   100  659.82715   58 1495 1167.00000  626.15318  46.3%  6311 3440s
   100   102  662.02316   59 1444 1167.00000  626.15318  46.3%  6298 3477s
   101   103  642.44473   59 1506 1167.00000  626.15318  46.3%  6245 3481s
   103   105  664.80750   60 1453 1167.00000  626.15318  46.3%  6322 3564s
   104   106  642.73460   61 1497 1167.00000  626.15318  46.3%  6270 3567s

Cutting planes:
  Cover: 1
  MIR: 104
  StrongCG: 14
  GUB cover: 1
  Zero half: 73
  RLT: 73

Explored 105 nodes (782727 simplex iterations) in 3600.03 seconds
Thread count was 1 (of 40 available processors)

Solution count 1: 1167 

Time limit reached
Best objective 1.167000000000e+03, best bound 6.270000000000e+02, gap 46.2725%

User-callback calls 45697, time in user-callback 0.14 sec
